NAME 
ROWS
 N  OBJ
 G  C1      
 G  C2      
 G  Upper[1]
 G  Upper[2]
 G  Upper[3]
 G  Upper[4]
 G  Upper   
 G  Lower[1]
 G  Lower[2]
 G  Lower[3]
 G  Lower[4]
 G  Lower   
COLUMNS
    X[1]      C1        -1
    X[2]      C2        -1
    Y[1]      OBJ       -16
    Y[1]      C1        -2
    Y[1]      C2        -6
    Y[1]      Upper[1]  -1
    Y[1]      Lower[1]  1
    Y[2]      OBJ       -19
    Y[2]      C1        -3
    Y[2]      C2        -1
    Y[2]      Upper[2]  -1
    Y[2]      Lower[2]  1
    Y[3]      OBJ       -23
    Y[3]      C1        -4
    Y[3]      C2        -3
    Y[3]      Upper[3]  -1
    Y[3]      Lower[3]  1
    Y[4]      OBJ       -28
    Y[4]      C1        -5
    Y[4]      C2        -2
    Y[4]      Upper[4]  -1
    Y[4]      Lower[4]  1
    R         OBJ       100
    R         C1        1
    R         C2        1
    R         Upper     -1
    R         Lower     1
RHS
    RHS1      C1        -10
    RHS1      C2        -3
    RHS1      Upper[1]  -1
    RHS1      Upper[2]  -1
    RHS1      Upper[3]  -1
    RHS1      Upper[4]  -1
    RHS1      Upper     -10
BOUNDS
 UP BND1      X[1]      1
 UP BND1      X[2]      1
 UP BND1      Y[1]      1
 UP BND1      Y[2]      1
 UP BND1      Y[3]      1
 UP BND1      Y[4]      1
 UP BND1      R         10
ENDATA
